[1] Reading Data...
[1] Solving...
Optimize a model with 17831 rows, 450 columns and 35662 nonzeros
Variable types: 0 continuous, 450 integer (450 binary)
Coefficient statistics:
  Matrix range     [1e+00, 1e+00]
  Objective range  [1e+00, 1e+00]
  Bounds range     [0e+00, 0e+00]
  RHS range        [1e+00, 1e+00]
Found heuristic solution: objective 21.0000000
Presolve removed 14360 rows and 0 columns
Presolve time: 0.41s
Presolved: 3471 rows, 450 columns, 20880 nonzeros
Variable types: 0 continuous, 450 integer (450 binary)

Root relaxation: objective 5.319801e+01, 2614 iterations, 1.41 seconds

    Nodes    |    Current Node    |     Objective Bounds      |     Work
 Expl Unexpl |  Obj  Depth IntInf | Incumbent    BestBd   Gap | It/Node Time

     0     0   53.19801    0  377   21.00000   53.19801   153%     -    2s
H    0     0                      22.0000000   53.19801   142%     -    2s
H    0     0                      23.0000000   53.19801   131%     -    2s
     0     0   30.45833    0  147   23.00000   30.45833  32.4%     -    3s
     0     0   30.45833    0  146   23.00000   30.45833  32.4%     -    3s
     0     0   30.00000    0  164   23.00000   30.00000  30.4%     -    4s
     0     0   30.00000    0  152   23.00000   30.00000  30.4%     -    4s
     0     0   30.00000    0  150   23.00000   30.00000  30.4%     -    4s
H    0     0                      24.0000000   30.00000  25.0%     -    4s
     0     0   30.00000    0  137   24.00000   30.00000  25.0%     -    4s
     0     0   30.00000    0  147   24.00000   30.00000  25.0%     -    5s
     0     0   30.00000    0  136   24.00000   30.00000  25.0%     -    5s
     0     0   30.00000    0  140   24.00000   30.00000  25.0%     -    5s
     0     0   30.00000    0  134   24.00000   30.00000  25.0%     -    5s
     0     0   30.00000    0  137   24.00000   30.00000  25.0%     -    6s
     0     0   30.00000    0  132   24.00000   30.00000  25.0%     -    6s
     0     0   30.00000    0  129   24.00000   30.00000  25.0%     -    6s
     0     0   30.00000    0  122   24.00000   30.00000  25.0%     -    6s
     0     0   30.00000    0  124   24.00000   30.00000  25.0%     -    7s
     0     0   30.00000    0  124   24.00000   30.00000  25.0%     -    7s
     0     2   30.00000    0  124   24.00000   30.00000  25.0%     -   10s
H   30    30                      25.0000000   30.00000  20.0%   205   11s
*   69    59              18      26.0000000   30.00000  15.4%   143   11s
H   88    59                      27.0000000   30.00000  11.1%   119   11s
H  139    68                      28.0000000   30.00000  7.14%  94.7   12s
   497   170   29.00000   16   46   28.00000   30.00000  7.14%  69.4   16s
   952   276   29.45946   21   93   28.00000   30.00000  7.14%  69.5   20s
  1482   397   30.00000   13   57   28.00000   30.00000  7.14%  68.4   25s
  2232   595   29.50000   14   77   28.00000   30.00000  7.14%  70.1   33s
  2540   671   30.00000   15   91   28.00000   30.00000  7.14%  71.8   35s
  3221   828   29.50000   24  124   28.00000   30.00000  7.14%  70.8   40s
  3224   830   29.28571   14  134   28.00000   30.00000  7.14%  70.8   46s
  3228   833   29.00000   14  135   28.00000   30.00000  7.14%  70.7   51s
  3233   836   29.82609   19  101   28.00000   30.00000  7.14%  70.6   55s
  3242   842   29.50000   17  123   28.00000   30.00000  7.14%  70.4   60s
  3245   847   30.00000   11  106   28.00000   30.00000  7.14%  76.6   65s
  3284   866   30.00000   16   72   28.00000   30.00000  7.14%  76.9   70s
  3781   987     cutoff   68        28.00000   30.00000  7.14%  75.4   75s
  3978  1014   29.00000   74   59   28.00000   30.00000  7.14%  74.1   80s
* 4074   673              67      29.0000000   30.00000  3.45%  73.4   80s
  4267   624   30.00000   14  346   29.00000   30.00000  3.45%  71.9   86s
  4270   626   30.00000   14  125   29.00000   30.00000  3.45%  71.9   91s
  4273   628   30.00000   42  142   29.00000   30.00000  3.45%  71.8   96s
  4278   632   30.00000   27  134   29.00000   30.00000  3.45%  71.8  100s
  4284   636   30.00000   34  138   29.00000   30.00000  3.45%  71.7  105s
  4289   642   30.00000   22  126   29.00000   30.00000  3.45%  76.6  114s
  4291   645   30.00000   23  116   29.00000   30.00000  3.45%  76.7  117s
  4299   649   30.00000   24  107   29.00000   30.00000  3.45%  76.8  120s
  4364   663   30.00000   32   68   29.00000   30.00000  3.45%  77.4  125s
  5106   566 infeasible   35        29.00000   30.00000  3.45%  76.6  131s
  5288   497   30.00000   55   75   29.00000   30.00000  3.45%  76.3  136s
  5532   435   30.00000   41   71   29.00000   30.00000  3.45%  76.3  142s
  5954   340 infeasible   58        29.00000   30.00000  3.45%  74.9  146s
  6679   220 infeasible   37        29.00000   30.00000  3.45%  73.5  150s
  7357   289   30.00000   40   71   29.00000   30.00000  3.45%  73.0  157s
  7648   214   30.00000   55   48   29.00000   30.00000  3.45%  72.8  161s
  8029   283   30.00000   36   79   29.00000   30.00000  3.45%  73.2  165s
  8964   551   30.00000   42   60   29.00000   30.00000  3.45%  72.7  171s
  9540   630 infeasible   53        29.00000   30.00000  3.45%  72.9  177s
  9878   575   30.00000   50   81   29.00000   30.00000  3.45%  73.4  181s
 10525   552 infeasible   48        29.00000   30.00000  3.45%  73.8  186s
 10825   563   30.00000   50   57   29.00000   30.00000  3.45%  73.7  190s
 11248   465 infeasible   40        29.00000   30.00000  3.45%  73.7  195s
 11852   459 infeasible   39        29.00000   30.00000  3.45%  74.3  200s
 12163   508   30.00000   37   68   29.00000   30.00000  3.45%  74.3  206s
 12860   513   30.00000   42   56   29.00000   30.00000  3.45%  74.8  212s
 13228   498   30.00000   41   70   29.00000   30.00000  3.45%  75.0  215s
 13786   449 infeasible   43        29.00000   30.00000  3.45%  75.6  220s
 13993   463 infeasible   50        29.00000   30.00000  3.45%  75.8  225s
 14413   390 infeasible   56        29.00000   30.00000  3.45%  76.0  230s
 15054   394   30.00000   49   54   29.00000   30.00000  3.45%  76.5  235s
 15550   317   30.00000   49   60   29.00000   30.00000  3.45%  76.2  240s
 16300   466 infeasible   35        29.00000   30.00000  3.45%  77.0  248s
 16398   397 infeasible   41        29.00000   30.00000  3.45%  77.1  251s
 17060   444 infeasible   31        29.00000   30.00000  3.45%  77.1  259s
 17147   382 infeasible   47        29.00000   30.00000  3.45%  77.1  265s
 17712   312   30.00000   40   59   29.00000   30.00000  3.45%  77.3  271s
 18318   294 infeasible   35        29.00000   30.00000  3.45%  77.6  279s
 18550   238 infeasible   43        29.00000   30.00000  3.45%  77.8  282s
 18927   300   30.00000   47   93   29.00000   30.00000  3.45%  78.0  286s
 19316   314 infeasible   52        29.00000   30.00000  3.45%  78.1  290s
 19552   313 infeasible   57        29.00000   30.00000  3.45%  78.4  295s
 20133   363 infeasible   40        29.00000   30.00000  3.45%  78.6  302s
 20594   445   30.00000   45   83   29.00000   30.00000  3.45%  78.7  305s
 21456   359   30.00000   50   64   29.00000   30.00000  3.45%  78.4  312s
 21907   473 infeasible   47        29.00000   30.00000  3.45%  78.5  325s
 22245   359 infeasible   30        29.00000   30.00000  3.45%  78.4  330s
 22823   305 infeasible   63        29.00000   30.00000  3.45%  78.4  335s
 23446   243 infeasible   48        29.00000   30.00000  3.45%  78.5  341s
 23803   370   30.00000   34  124   29.00000   30.00000  3.45%  78.6  390s
 23806   372   30.00000   33  140   29.00000   30.00000  3.45%  78.6  396s
 23809   374   30.00000   31  155   29.00000   30.00000  3.45%  78.6  401s
 23813   377   30.00000   48  140   29.00000   30.00000  3.45%  78.5  405s
 23819   381   30.00000   34  120   29.00000   30.00000  3.45%  78.5  410s
 23825   385   30.00000   57  121   29.00000   30.00000  3.45%  78.5  415s
 23830   388   30.00000   35  131   29.00000   30.00000  3.45%  78.5  421s
 23833   393   30.00000   33  115   29.00000   30.00000  3.45%  79.6  428s
 23835   395   30.00000   34   98   29.00000   30.00000  3.45%  79.6  430s
 23847   400   30.00000   36   92   29.00000   30.00000  3.45%  79.6  435s
 23879   410   30.00000   41   84   29.00000   30.00000  3.45%  79.6  440s
 24004   375   30.00000   47   59   29.00000   30.00000  3.45%  79.5  448s
 24199   324 infeasible   52        29.00000   30.00000  3.45%  79.6  450s
 24633   298   30.00000   66   64   29.00000   30.00000  3.45%  79.5  457s
 24683   280   30.00000   67   74   29.00000   30.00000  3.45%  79.5  460s
 24872   152   30.00000   53   80   29.00000   30.00000  3.45%  79.4  467s
 25438    99   30.00000   49   72   29.00000   30.00000  3.45%  79.5  471s
 25930   134   30.00000   57   84   29.00000   30.00000  3.45%  79.7  475s
 26253   184   30.00000   79   87   29.00000   30.00000  3.45%  79.8  480s
 27191   206 infeasible   59        29.00000   30.00000  3.45%  79.9  487s
*27195     9              67      30.0000000   30.00000  0.00%  79.9  487s

Cutting planes:
  Cover: 1
  Clique: 267
  Zero half: 3

Explored 27555 nodes (2212167 simplex iterations) in 487.11 seconds
Thread count was 4 (of 4 available processors)

Solution count 10: 30 29 28 ... 21

Optimal solution found (tolerance 1.00e-04)
Best objective 3.000000000000e+01, best bound 3.000000000000e+01, gap 0.0000%
[1] Generating Graphs:
[1] Generating: ./../results/frb30-15-4/frb30-15-4-Green.jpeg
[1] Generating: ./../results/frb30-15-4/frb30-15-4-Blue.jpeg
[1] Generating: ./../results/frb30-15-4/frb30-15-4-Orange.jpeg
[1] Generating: ./../results/frb30-15-4/frb30-15-4-Purple.jpeg
[1] Generating: ./../results/frb30-15-4/frb30-15-4-Pink.jpeg
[1] Generating: ./../results/frb30-15-4/frb30-15-4-Red.jpeg
[1] Done.
